n_res = 4;
rc = [ 27, 23, 27, 23 ];
n_tasks = 30;
d = [ 8, 7, 1, 10, 6, 5, 1, 1, 7, 9, 8, 10, 10, 10, 9, 1, 4, 1, 2, 8, 2, 3, 9, 5, 3, 2, 1, 2, 1, 1 ];
rr = [| 27, 27, 27, 27, 27, 27, 27, 27, 27, 27, 27, 27, 27, 27, 27, 27, 27, 27, 27, 27, 27, 27, 27, 27, 27, 27, 27, 27, 27, 27
      | 23, 23, 23, 23, 23, 23, 23, 23, 23, 23, 23, 23, 23, 23, 23, 23, 23, 23, 23, 23, 23, 23, 23, 23, 23, 23, 23, 23, 23, 23
      | 27, 27, 27, 27, 27, 27, 27, 27, 27, 27, 27, 27, 27, 27, 27, 27, 27, 27, 27, 27, 27, 27, 27, 27, 27, 27, 27, 27, 27, 27
      | 23, 23, 23, 23, 23, 23, 23, 23, 23, 23, 23, 23, 23, 23, 23, 23, 23, 23, 23, 23, 23, 23, 23, 23, 23, 23, 23, 23, 23, 23|];
suc = [ { 18, 19 },
       { 4, 8, 14 },
       { 6, 12, 30 },
       { 5, 9, 25 },
       { 7, 13, 18 },
       { 19, 28 },
       { 17, 23, 27 },
       { 10, 11, 15 },
       { 16, 19 },
       { 12, 17, 18 },
       { 25 },
       { 13 },
       { 26 },
       { 16 },
       { 17, 20, 27 },
       { 21, 28, 30 },
       { 22 },
       { 24, 29 },
       { 21, 27 },
       { 21, 24, 25 },
       { 26 },
       { 30 },
       { 24 },
       { 28 },
       { 26 },
       { 29 },
       { 29 },
       {  },
       {  },
       {  } ];
